Maximize
  1.2740147017283697e-04 Z_116_0_0 + 0.00392233113918926 Z_116_0_1
   + 0.7424786402883365 Z_116_0_2 + 2.746278265481858e-04 Z_116_0_3
   + 0.1531969992757532 Z_116_0_4
Subject To
 constraint1_1160: Z_116_0_0 + Z_116_0_1 + Z_116_0_2 + Z_116_0_3
   + Z_116_0_4 <= 1
 constraint2_1160: Z_116_0_0 <= 1
 constraint2_1161: Z_116_0_1 <= 1
 constraint2_1162: Z_116_0_2 <= 1
 constraint2_1163: Z_116_0_3 <= 1
Bounds
Binaries
 Z_116_0_0 Z_116_0_1 Z_116_0_2 Z_116_0_3 Z_116_0_4
End
